20J6M/DAT/20J6MNLL-17.dat
20 6
25.3636 25.3636
28.4049 28.4049
25.2206 25.2206
14.9665 14.9665
17.0063 17.0063
27.6985 27.6985
24.9276 24.9276
26.3023 26.3023
27.0984 27.0984
21.5165 21.5165
25.3784 25.3784
32.3102 32.3102
23.5667 23.5667
19.2888 19.2888
27.9047 27.9047
21.8535 21.8535
21.425 21.425
32.5884 32.5884
29.5095 29.5095
21.819 21.819
82.3582