20J6M/SOL/20J6MNLL-17.sol
solution status: optimal solution found
objective value:                              82.3582
x#1#6                                               1 	(obj:0)
x#2#2                               0.346436706342919 	(obj:0)
x#2#3                               0.653563293657081 	(obj:0)
x#3#2                               0.876640524016082 	(obj:0)
x#3#4                               0.123359475983918 	(obj:0)
x#4#4                                               1 	(obj:0)
x#5#5                                               1 	(obj:0)
x#6#3                               0.518894524974276 	(obj:0)
x#6#5                               0.481105475025723 	(obj:0)
x#7#5                                               1 	(obj:0)
x#8#2                                               1 	(obj:0)
x#9#5                                               1 	(obj:0)
x#10#3                                              1 	(obj:0)
x#11#2                              0.475061469596192 	(obj:0)
x#11#6                              0.524938530403808 	(obj:0)
x#12#1                                              1 	(obj:0)
x#13#4                                              1 	(obj:0)
x#14#4                                              1 	(obj:0)
x#15#3                                              1 	(obj:0)
x#16#6                                              1 	(obj:0)
x#17#4                                              1 	(obj:0)
x#18#1                              0.999993862846903 	(obj:0)
x#19#1                              0.591667090259069 	(obj:0)
x#19#2                              0.408332909740931 	(obj:0)
x#20#6                                              1 	(obj:0)
z                                             82.3582 	(obj:1)
